GLPSOL: GLPK LP/MIP Solver, v4.65
Parameter(s) specified in the command line:
 --cover --clique --gomory --mir -m src/modelo.mod -o src/out/modelo.out
Reading model section from src/modelo.mod...
Reading data section from src/modelo.mod...
src/modelo.mod:109: warning: final NL missing before end of file
109 lines were read
p[1] = 2 /nr[1] = 3 /nT = 5 /nR = 4 /nM = 1000000 /nGenerating obj...
Generating job_assignment...
Generating time_limit...
Generating resource_limit...
Generating job_assignment_limit...
Generating longest_idle_time...
Generating longest_idle_time_limit...
Generating slack_constraint...
Model has been successfully generated
GLPK Integer Optimizer, v4.65
34 rows, 22 columns, 112 non-zeros
21 integer variables, all of which are binary
Preprocessing...
33 rows, 22 columns, 108 non-zeros
21 integer variables, all of which are binary
Scaling...
 A: min|aij| =  1.000e+00  max|aij| =  1.000e+06  ratio =  1.000e+06
GM: min|aij| =  4.729e-02  max|aij| =  2.115e+01  ratio =  4.472e+02
EQ: min|aij| =  2.236e-03  max|aij| =  1.000e+00  ratio =  4.472e+02
2N: min|aij| =  1.221e-03  max|aij| =  1.000e+00  ratio =  8.192e+02
Constructing initial basis...
Size of triangular part is 33
Solving LP relaxation...
GLPK Simplex Optimizer, v4.65
33 rows, 22 columns, 108 non-zeros
      0: obj =   0.000000000e+00 inf =   1.333e-01 (9)
     15: obj =   8.333333333e+00 inf =   5.963e-19 (0)
*    19: obj =  -6.666583333e+05 inf =   1.057e-17 (0)
OPTIMAL LP SOLUTION FOUND
Integer optimization begins...
Long-step dual simplex will be used
Gomory's cuts enabled
MIR cuts enabled
Cover cuts enabled
Number of 0-1 knapsack inequalities = 12
Clique cuts enabled
Constructing conflict graph...
Conflict graph has 18 + 3 = 21 vertices
+    19: mip =     not found yet >=              -inf        (1; 0)
Cuts on level 0: gmi = 1; mir = 5; cov = 1; clq = 3;
Cuts on level 1: gmi = 1; mir = 5; cov = 1; clq = 3;
+    73: >>>>>   1.500000000e+01 >=  -4.999850000e+05        (2; 0)
+    79: mip =   1.500000000e+01 >=     tree is empty   0.0% (0; 5)
INTEGER OPTIMAL SOLUTION FOUND
Time used:   0.0 secs
Memory used: 0.2 Mb (247236 bytes)
Writing MIP solution to 'src/out/modelo.out'...
